; PUSH cw_5 DUP1 PUSH cw_6 PUSH cw_8 PUSH cw_7 SWAP1 => PUSH cw_5 PUSH cw_5 PUSH cw_6 PUSH cw_7 PUSH cw_8
(set-option :produce-proofs true)
; 
(set-info :status unknown)
(declare-fun storage_t ((_ BitVec 256) (_ BitVec 256) (_ BitVec 256) (_ BitVec 256) Int (_ BitVec 256)) (_ BitVec 256))
(declare-fun w_7 () (_ BitVec 256))
(declare-fun w_8 () (_ BitVec 256))
(declare-fun w_6 () (_ BitVec 256))
(declare-fun w_5 () (_ BitVec 256))
(declare-fun storage_s ((_ BitVec 256) (_ BitVec 256) (_ BitVec 256) (_ BitVec 256) Int (_ BitVec 256)) (_ BitVec 256))
(declare-fun exc_halt_t (Int) Bool)
(declare-fun exc_halt_s (Int) Bool)
(declare-fun stack_t ((_ BitVec 256) (_ BitVec 256) (_ BitVec 256) (_ BitVec 256) Int (_ BitVec 6)) (_ BitVec 256))
(declare-fun stack_s ((_ BitVec 256) (_ BitVec 256) (_ BitVec 256) (_ BitVec 256) Int (_ BitVec 6)) (_ BitVec 256))
(declare-fun sc_t (Int) (_ BitVec 6))
(declare-fun sc_s (Int) (_ BitVec 6))
(declare-fun used_gas_t ((_ BitVec 256) (_ BitVec 256) (_ BitVec 256) (_ BitVec 256) Int) Int)
(declare-fun used_gas_s ((_ BitVec 256) (_ BitVec 256) (_ BitVec 256) (_ BitVec 256) Int) Int)
(assert
 (let (($x3603 (forall ((w (_ BitVec 256)) )(let ((?x11450 (storage_t w_5 w_6 w_8 w_7 5 w)))
 (let ((?x6647 (storage_s w_5 w_6 w_8 w_7 6 w)))
 (= ?x6647 ?x11450))))
 ))
 (let (($x886 (exc_halt_t 5)))
 (let (($x772 (exc_halt_s 6)))
 (let (($x889 (= $x772 $x886)))
 (let (($x11365 (forall ((n (_ BitVec 6)) )(let ((?x1667 (stack_t w_5 w_6 w_8 w_7 5 n)))
 (let ((?x10161 (stack_s w_5 w_6 w_8 w_7 6 n)))
 (let (($x10818 (= ?x10161 ?x1667)))
 (or (bvsle (sc_t 5) n) $x10818)))))
 ))
 (let ((?x919 (sc_t 5)))
 (let ((?x926 (sc_s 6)))
 (let (($x929 (= ?x926 ?x919)))
 (let ((?x8498 (used_gas_t w_5 w_6 w_8 w_7 0)))
 (let ((?x3622 (used_gas_s w_5 w_6 w_8 w_7 0)))
 (let (($x10247 (= ?x3622 ?x8498)))
 (let (($x1370 (forall ((w (_ BitVec 256)) )(let ((?x8610 (storage_t w_5 w_6 w_8 w_7 0 w)))
 (let ((?x6782 (storage_s w_5 w_6 w_8 w_7 0 w)))
 (= ?x6782 ?x8610))))
 ))
 (let (($x56 (exc_halt_t 0)))
 (let (($x57 (exc_halt_s 0)))
 (let (($x58 (= $x57 $x56)))
 (let (($x6771 (forall ((n (_ BitVec 6)) )(let ((?x63 (sc_t 0)))
 (let (($x2855 (bvsle ?x63 n)))
 (let ((?x2011 (stack_t w_5 w_6 w_8 w_7 0 n)))
 (let ((?x10927 (stack_s w_5 w_6 w_8 w_7 0 n)))
 (let (($x1988 (= ?x10927 ?x2011)))
 (or $x1988 $x2855)))))))
 ))
 (let ((?x63 (sc_t 0)))
 (let ((?x72 (sc_s 0)))
 (let (($x73 (= ?x72 ?x63)))
 (let (($x7854 (exc_halt_t 4)))
 (let (($x2471 (or $x7854 (not (= ((_ extract 6 6) (bvadd (_ bv1 7) (concat (_ bv0 1) (sc_t 4)))) (_ bv0 1))))))
 (let (($x2510 (forall ((w (_ BitVec 256)) )(let ((?x1662 (storage_t w_5 w_6 w_8 w_7 4 w)))
 (let ((?x11450 (storage_t w_5 w_6 w_8 w_7 5 w)))
 (= ?x11450 ?x1662))))
 ))
 (let (($x9769 (forall ((n (_ BitVec 6)) )(let ((?x10835 (stack_t w_5 w_6 w_8 w_7 4 n)))
 (let ((?x1667 (stack_t w_5 w_6 w_8 w_7 5 n)))
 (or (bvsle (sc_t 4) n) (= ?x1667 ?x10835)))))
 ))
 (let (($x3700 (= (used_gas_t w_5 w_6 w_8 w_7 5) (+ 3 (used_gas_t w_5 w_6 w_8 w_7 4)))))
 (let (($x6783 (exc_halt_t 3)))
 (let (($x147 (or $x6783 (not (= ((_ extract 6 6) (bvadd (_ bv1 7) (concat (_ bv0 1) (sc_t 3)))) (_ bv0 1))))))
 (let (($x8260 (forall ((w (_ BitVec 256)) )(let ((?x9230 (storage_t w_5 w_6 w_8 w_7 3 w)))
 (let ((?x1662 (storage_t w_5 w_6 w_8 w_7 4 w)))
 (= ?x1662 ?x9230))))
 ))
 (let (($x4470 (forall ((n (_ BitVec 6)) )(let ((?x1380 (stack_t w_5 w_6 w_8 w_7 3 n)))
 (let ((?x10835 (stack_t w_5 w_6 w_8 w_7 4 n)))
 (or (bvsle (sc_t 3) n) (= ?x10835 ?x1380)))))
 ))
 (let ((?x3742 (used_gas_t w_5 w_6 w_8 w_7 4)))
 (let (($x2163 (exc_halt_t 2)))
 (let (($x494 (or $x2163 (not (= ((_ extract 6 6) (bvadd (_ bv1 7) (concat (_ bv0 1) (sc_t 2)))) (_ bv0 1))))))
 (let (($x2191 (forall ((w (_ BitVec 256)) )(let ((?x3788 (storage_t w_5 w_6 w_8 w_7 2 w)))
 (let ((?x9230 (storage_t w_5 w_6 w_8 w_7 3 w)))
 (= ?x9230 ?x3788))))
 ))
 (let (($x5857 (forall ((n (_ BitVec 6)) )(let ((?x1500 (stack_t w_5 w_6 w_8 w_7 2 n)))
 (let ((?x1380 (stack_t w_5 w_6 w_8 w_7 3 n)))
 (or (bvsle (sc_t 2) n) (= ?x1380 ?x1500)))))
 ))
 (let ((?x4228 (used_gas_t w_5 w_6 w_8 w_7 3)))
 (let (($x8377 (exc_halt_t 1)))
 (let (($x7969 (or $x8377 (not (= ((_ extract 6 6) (bvadd (_ bv1 7) (concat (_ bv0 1) (sc_t 1)))) (_ bv0 1))))))
 (let (($x11451 (forall ((w (_ BitVec 256)) )(let ((?x8828 (storage_t w_5 w_6 w_8 w_7 1 w)))
 (let ((?x3788 (storage_t w_5 w_6 w_8 w_7 2 w)))
 (= ?x3788 ?x8828))))
 ))
 (let (($x7271 (forall ((n (_ BitVec 6)) )(let ((?x559 (stack_t w_5 w_6 w_8 w_7 1 n)))
 (let ((?x1500 (stack_t w_5 w_6 w_8 w_7 2 n)))
 (or (bvsle (sc_t 1) n) (= ?x1500 ?x559)))))
 ))
 (let ((?x3218 (used_gas_t w_5 w_6 w_8 w_7 2)))
 (let (($x7349 (= $x8377 (or $x56 (not (= ((_ extract 6 6) (bvadd (_ bv1 7) (concat (_ bv0 1) ?x63))) (_ bv0 1)))))))
 (let (($x6374 (forall ((w (_ BitVec 256)) )(let ((?x8610 (storage_t w_5 w_6 w_8 w_7 0 w)))
 (let ((?x8828 (storage_t w_5 w_6 w_8 w_7 1 w)))
 (= ?x8828 ?x8610))))
 ))
 (let (($x917 (forall ((n (_ BitVec 6)) )(let ((?x2011 (stack_t w_5 w_6 w_8 w_7 0 n)))
 (let ((?x559 (stack_t w_5 w_6 w_8 w_7 1 n)))
 (let ((?x63 (sc_t 0)))
 (let (($x2855 (bvsle ?x63 n)))
 (or $x2855 (= ?x559 ?x2011)))))))
 ))
 (let (($x6274 (= $x772 (or (exc_halt_s 5) (not (bvsle (_ bv0 6) (bvadd (_ bv62 6) (sc_s 5))))))))
 (let (($x7560 (forall ((w (_ BitVec 256)) )(let ((?x5823 (storage_s w_5 w_6 w_8 w_7 5 w)))
 (let ((?x6647 (storage_s w_5 w_6 w_8 w_7 6 w)))
 (= ?x6647 ?x5823))))
 ))
 (let (($x6168 (forall ((n (_ BitVec 6)) )(let ((?x10505 (stack_s w_5 w_6 w_8 w_7 5 n)))
 (let ((?x10161 (stack_s w_5 w_6 w_8 w_7 6 n)))
 (or (= ?x10161 ?x10505) (bvsle (bvadd (_ bv62 6) (sc_s 5)) n)))))
 ))
 (let (($x8696 (= (used_gas_s w_5 w_6 w_8 w_7 6) (+ 3 (used_gas_s w_5 w_6 w_8 w_7 5)))))
 (let (($x4827 (= (stack_s w_5 w_6 w_8 w_7 6 (bvadd (_ bv62 6) ?x926)) (stack_s w_5 w_6 w_8 w_7 5 (bvadd (_ bv63 6) (sc_s 5))))))
 (let (($x9108 (= (stack_s w_5 w_6 w_8 w_7 6 (bvadd (_ bv63 6) ?x926)) (stack_s w_5 w_6 w_8 w_7 5 (bvadd (_ bv62 6) (sc_s 5))))))
 (let (($x7172 (exc_halt_s 4)))
 (let (($x5288 (or $x7172 (not (= ((_ extract 6 6) (bvadd (_ bv1 7) (concat (_ bv0 1) (sc_s 4)))) (_ bv0 1))))))
 (let (($x11317 (exc_halt_s 5)))
 (let (($x8858 (forall ((w (_ BitVec 256)) )(let ((?x10175 (storage_s w_5 w_6 w_8 w_7 4 w)))
 (let ((?x5823 (storage_s w_5 w_6 w_8 w_7 5 w)))
 (= ?x5823 ?x10175))))
 ))
 (let (($x2527 (forall ((n (_ BitVec 6)) )(let ((?x9196 (stack_s w_5 w_6 w_8 w_7 4 n)))
 (let ((?x10505 (stack_s w_5 w_6 w_8 w_7 5 n)))
 (or (= ?x10505 ?x9196) (bvsle (sc_s 4) n)))))
 ))
 (let ((?x195 (used_gas_s w_5 w_6 w_8 w_7 5)))
 (let (($x292 (exc_halt_s 3)))
 (let (($x10433 (or $x292 (not (= ((_ extract 6 6) (bvadd (_ bv1 7) (concat (_ bv0 1) (sc_s 3)))) (_ bv0 1))))))
 (let (($x3016 (forall ((w (_ BitVec 256)) )(let ((?x907 (storage_s w_5 w_6 w_8 w_7 3 w)))
 (let ((?x10175 (storage_s w_5 w_6 w_8 w_7 4 w)))
 (= ?x10175 ?x907))))
 ))
 (let (($x9011 (forall ((n (_ BitVec 6)) )(let ((?x8347 (stack_s w_5 w_6 w_8 w_7 3 n)))
 (let ((?x9196 (stack_s w_5 w_6 w_8 w_7 4 n)))
 (or (bvsle (sc_s 3) n) (= ?x9196 ?x8347)))))
 ))
 (let ((?x5336 (used_gas_s w_5 w_6 w_8 w_7 4)))
 (let (($x247 (exc_halt_s 2)))
 (let (($x4901 (or $x247 (not (= ((_ extract 6 6) (bvadd (_ bv1 7) (concat (_ bv0 1) (sc_s 2)))) (_ bv0 1))))))
 (let (($x8949 (forall ((w (_ BitVec 256)) )(let ((?x9584 (storage_s w_5 w_6 w_8 w_7 2 w)))
 (let ((?x907 (storage_s w_5 w_6 w_8 w_7 3 w)))
 (= ?x907 ?x9584))))
 ))
 (let (($x3026 (forall ((n (_ BitVec 6)) )(let ((?x1860 (stack_s w_5 w_6 w_8 w_7 2 n)))
 (let ((?x8347 (stack_s w_5 w_6 w_8 w_7 3 n)))
 (or (= ?x8347 ?x1860) (bvsle (sc_s 2) n)))))
 ))
 (let ((?x7300 (used_gas_s w_5 w_6 w_8 w_7 3)))
 (let (($x189 (exc_halt_s 1)))
 (let (($x8766 (or $x189 (not (= ((_ extract 6 6) (bvadd (_ bv1 7) (concat (_ bv0 1) (sc_s 1)))) (_ bv0 1))) (not (bvsle (_ bv0 6) (bvadd (_ bv63 6) (sc_s 1)))))))
 (let (($x9531 (forall ((w (_ BitVec 256)) )(let ((?x1017 (storage_s w_5 w_6 w_8 w_7 1 w)))
 (let ((?x9584 (storage_s w_5 w_6 w_8 w_7 2 w)))
 (= ?x9584 ?x1017))))
 ))
 (let (($x905 (forall ((n (_ BitVec 6)) )(let ((?x1094 (stack_s w_5 w_6 w_8 w_7 1 n)))
 (let ((?x1860 (stack_s w_5 w_6 w_8 w_7 2 n)))
 (or (= ?x1860 ?x1094) (bvsle (bvadd (_ bv63 6) (sc_s 1)) n)))))
 ))
 (let ((?x3078 (used_gas_s w_5 w_6 w_8 w_7 2)))
 (let ((?x154 (sc_s 1)))
 (let ((?x11673 (bvadd (_ bv63 6) ?x154)))
 (let ((?x10115 (stack_s w_5 w_6 w_8 w_7 1 ?x11673)))
 (let (($x10714 (= (stack_s w_5 w_6 w_8 w_7 2 (bvadd (_ bv63 6) (sc_s 2))) ?x10115)))
 (let (($x9208 (= $x189 (or $x57 (not (= ((_ extract 6 6) (bvadd (_ bv1 7) (concat (_ bv0 1) ?x72))) (_ bv0 1)))))))
 (let (($x6001 (forall ((w (_ BitVec 256)) )(let ((?x6782 (storage_s w_5 w_6 w_8 w_7 0 w)))
 (let ((?x1017 (storage_s w_5 w_6 w_8 w_7 1 w)))
 (= ?x1017 ?x6782))))
 ))
 (let (($x1352 (forall ((n (_ BitVec 6)) )(let ((?x10927 (stack_s w_5 w_6 w_8 w_7 0 n)))
 (let ((?x1094 (stack_s w_5 w_6 w_8 w_7 1 n)))
 (or (= ?x1094 ?x10927) (bvsle (sc_s 0) n)))))
 ))
 (let (($x3868 (forall ((w (_ BitVec 256)) )(let ((?x6782 (storage_s w_5 w_6 w_8 w_7 0 w)))
 (= ?x6782 (_ bv0 256))))
 ))
 (let (($x9673 (= ?x3622 0)))
 (let (($x5849 (= ?x72 (_ bv0 6))))
 (and $x5849 (not $x57) $x9673 $x3868 (= (stack_s w_5 w_6 w_8 w_7 1 ?x72) w_5) (= (used_gas_s w_5 w_6 w_8 w_7 1) (+ 3 ?x3622)) (= ?x154 (bvadd (_ bv1 6) ?x72)) $x1352 $x6001 $x9208 $x10714 (= (stack_s w_5 w_6 w_8 w_7 2 ?x11673) ?x10115) (= ?x3078 (+ 3 (used_gas_s w_5 w_6 w_8 w_7 1))) (= (sc_s 2) (bvadd (_ bv1 6) ?x154)) $x905 $x9531 (= $x247 $x8766) (= (stack_s w_5 w_6 w_8 w_7 3 (sc_s 2)) w_6) (= ?x7300 (+ 3 ?x3078)) (= (sc_s 3) (bvadd (_ bv1 6) (sc_s 2))) $x3026 $x8949 (= $x292 $x4901) (= (stack_s w_5 w_6 w_8 w_7 4 (sc_s 3)) w_8) (= ?x5336 (+ 3 ?x7300)) (= (sc_s 4) (bvadd (_ bv1 6) (sc_s 3))) $x9011 $x3016 (= $x7172 $x10433) (= (stack_s w_5 w_6 w_8 w_7 5 (sc_s 4)) w_7) (= ?x195 (+ 3 ?x5336)) (= (sc_s 5) (bvadd (_ bv1 6) (sc_s 4))) $x2527 $x8858 (= $x11317 $x5288) $x9108 $x4827 $x8696 (= ?x926 (sc_s 5)) $x6168 $x7560 $x6274 (= (stack_t w_5 w_6 w_8 w_7 1 ?x63) w_5) (= (used_gas_t w_5 w_6 w_8 w_7 1) (+ 3 ?x8498)) (= (sc_t 1) (bvadd (_ bv1 6) ?x63)) $x917 $x6374 $x7349 (= (stack_t w_5 w_6 w_8 w_7 2 (sc_t 1)) w_5) (= ?x3218 (+ 3 (used_gas_t w_5 w_6 w_8 w_7 1))) (= (sc_t 2) (bvadd (_ bv1 6) (sc_t 1))) $x7271 $x11451 (= $x2163 $x7969) (= (stack_t w_5 w_6 w_8 w_7 3 (sc_t 2)) w_6) (= ?x4228 (+ 3 ?x3218)) (= (sc_t 3) (bvadd (_ bv1 6) (sc_t 2))) $x5857 $x2191 (= $x6783 $x494) (= (stack_t w_5 w_6 w_8 w_7 4 (sc_t 3)) w_7) (= ?x3742 (+ 3 ?x4228)) (= (sc_t 4) (bvadd (_ bv1 6) (sc_t 3))) $x4470 $x8260 (= $x7854 $x147) (= (stack_t w_5 w_6 w_8 w_7 5 (sc_t 4)) w_8) $x3700 (= ?x919 (bvadd (_ bv1 6) (sc_t 4))) $x9769 $x2510 (= $x886 $x2471) $x73 $x6771 $x58 $x1370 $x10247 (not (and $x929 $x11365 $x889 $x3603)))))))))))))))))))))))))))))))))))))))))))))))))))))))))))))))))))))))))))))))))))
(check-sat)
(get-proof)
